34
100
70	1
65	1
62	2
61	1
58	1
55	1
52	1
51	1
50	3
49	1
47	3
46	1
45	2
44	1
42	2
41	2
40	2
39	1
37	2
36	1
35	1
34	1
31	1
30	1
28	1
26	4
24	3
20	2
19	1
17	1
16	1
15	1
12	1
11	1
